(set-logic QF_SLIA)
(declare-const result String)
(declare-const attack String)
(declare-const prefix RegLan)
(declare-const infix RegLan)
(declare-const postfix RegLan)
(declare-const postfixs String)

(assert (str.in_re attack (re.++ prefix ((_ re.loop 10000 10000) infix) postfix)))
(assert (= prefix 
     (re.++  (re.++  (str.to_re "\x3b") (re.++ (re.*  (str.to_re "\x20") ) (re.++ (re.opt  (re.++  (str.to_re "\x49") (re.++  (str.to_re "\x6e") (re.++  (str.to_re "\x74") (re.++  (str.to_re "\x65") (re.++  (str.to_re "\x78")  (re.union  (str.to_re "\x20")  (str.to_re "\x5f"))))))) ) (re.++  (re.union  (re.++  (str.to_re "\x41") (re.++  (str.to_re "\x51") (re.++  (str.to_re "\x55")  (str.to_re "\x41"))))  (re.++  (str.to_re "\x41") (re.++  (str.to_re "\x71") (re.++  (str.to_re "\x75")  (str.to_re "\x61")))))  (re.union  (str.to_re "\x20") (re.union  (str.to_re "\x5c\x2d") (re.union  (str.to_re "\x5c\x2e")  (str.to_re "\x5f")))))))) (re.+  (re.union  (str.to_re "\x5c\x2f")  (str.to_re "\x3b")) ))
))
(assert (= infix 
         (re.++ (re.+  (re.union  (str.to_re "\x5c\x2f")  (str.to_re "\x3b")) ) (re.++  (str.to_re "\x26") (re.++  (re.++ (re.+  (re.union  (str.to_re "\x5c\x2f")  (str.to_re "\x3b")) ) (re.++  (re.*  (str.to_re "\x20") ))) (re.++  (str.to_re "\x26") (re.++ (re.*  (str.to_re "\x20") ) (re.++  (str.to_re "\x26") (re.+ re.allchar )))))))
))
(assert (= postfix 
         (str.to_re "\x40")
))
(assert (str.in_re postfixs postfix))
(assert (>= (str.len postfixs) 1))
(assert (= result (str.++ attack postfixs)))
(check-sat)
(get-model)